Instance: E121-07c.dat
Class:  5
  120 --- number of customers (no depot)
   25 --- number of vehicles
  384 --- number of items
Capacity - height - width of vehicles
   200     40     20
Node - x - y - demand
    0    10.0    45.0     0.0
    1    25.0     1.0    25.0
    2    25.0     3.0     7.0
    3    31.0     5.0    13.0
    4    32.0     5.0     6.0
    5    31.0     7.0    14.0
    6    32.0     9.0     5.0
    7    34.0     9.0    11.0
    8    46.0     9.0    19.0
    9    35.0     7.0     5.0
   10    34.0     6.0    15.0
   11    35.0     5.0    15.0
   12    47.0     6.0    17.0
   13    40.0     5.0    13.0
   14    39.0     3.0    12.0
   15    36.0     3.0    18.0
   16    73.0     6.0    13.0
   17    73.0     8.0    18.0
   18    24.0    36.0    12.0
   19    76.0     6.0    17.0
   20    76.0    10.0     4.0
   21    76.0    13.0     7.0
   22    78.0     3.0    12.0
   23    78.0     9.0    13.0
   24    79.0     3.0     8.0
   25    79.0     5.0    16.0
   26    79.0    11.0    15.0
   27    82.0     3.0     6.0
   28    82.0     7.0     5.0
   29    90.0    15.0     9.0
   30    84.0     3.0    11.0
   31    84.0     5.0    10.0
   32    84.0     9.0     3.0
   33    85.0     1.0     7.0
   34    87.0     5.0     2.0
   35    85.0     8.0     4.0
   36    87.0     7.0     4.0
   37    86.0    41.0    18.0
   38    86.0    44.0    14.0
   39    86.0    46.0    12.0
   40    85.0    55.0    17.0
   41    89.0    43.0    20.0
   42    89.0    46.0    14.0
   43    89.0    52.0    16.0
   44    92.0    42.0    10.0
   45    92.0    52.0     9.0
   46    94.0    42.0    11.0
   47    94.0    44.0     7.0
   48    94.0    48.0    13.0
   49    96.0    42.0     5.0
   50    99.0    46.0     4.0
   51    99.0    50.0    21.0
   52    83.0    80.0    13.0
   53    83.0    83.0    11.0
   54    85.0    81.0    12.0
   55    85.0    85.0    14.0
   56    85.0    89.0    10.0
   57    87.0    80.0     8.0
   58    87.0    86.0    16.0
   59    90.0    77.0    19.0
   60    90.0    88.0     5.0
   61    93.0    82.0    17.0
   62    93.0    84.0     7.0
   63    93.0    89.0    16.0
   64    94.0    86.0    14.0
   65    95.0    80.0    17.0
   66    99.0    89.0    13.0
   67    37.0    83.0    17.0
   68    50.0    80.0    13.0
   69    35.0    85.0    14.0
   70    35.0    87.0    16.0
   71    44.0    86.0     7.0
   72    46.0    89.0    13.0
   73    46.0    83.0     9.0
   74    46.0    87.0    11.0
   75    46.0    89.0    35.0
   76    48.0    83.0     5.0
   77    50.0    85.0    28.0
   78    50.0    88.0     7.0
   79    54.0    86.0     3.0
   80    54.0    90.0    10.0
   81    10.0    35.0     7.0
   82    10.0    40.0    12.0
   83    18.0    30.0    11.0
   84    17.0    35.0    10.0
   85    16.0    38.0     8.0
   86    14.0    40.0    11.0
   87    15.0    42.0    21.0
   88    11.0    42.0     4.0
   89    18.0    40.0    15.0
   90    21.0    39.0    16.0
   91    20.0    40.0     4.0
   92    18.0    41.0    16.0
   93    20.0    44.0     7.0
   94    22.0    44.0    10.0
   95    16.0    45.0     9.0
   96    20.0    45.0    11.0
   97    25.0    45.0    17.0
   98    30.0    55.0    12.0
   99    20.0    50.0    11.0
  100    22.0    51.0     7.0
  101    18.0    49.0     9.0
  102    16.0    48.0    11.0
  103    20.0    55.0    12.0
  104    18.0    53.0     7.0
  105    14.0    50.0     8.0
  106    15.0    51.0     6.0
  107    16.0    54.0     5.0
  108    28.0    33.0    12.0
  109    33.0    38.0    13.0
  110    30.0    50.0     7.0
  111    13.0    40.0     7.0
  112    15.0    36.0     8.0
  113    18.0    31.0    11.0
  114    25.0    37.0    13.0
  115    30.0    46.0    11.0
  116    25.0    52.0    10.0
  117    16.0    33.0     7.0
  118    25.0    35.0     4.0
  119     5.0    40.0    20.0
  120     5.0    50.0    13.0
Node - number of items - h - w for each item
    0   0
    1   5    5    9    5    8    9    5    7    5    9    4
    2   4   11    4   11    2    7    2    5    2
    3   1   20    3
    4   4    5    7    7    5    6    5    7    4
    5   4    6   11    7    8    8    5    4    5
    6   1    6    7
    7   4    8   11    7   10    6    6   17    3
    8   4    6   10    7    5    7    3   17    2
    9   3    5    6   11    4    5    4
   10   3    5    6    9    4    7    3
   11   5    4   11    5    9    9    4    9    3    6    2
   12   1    7    3
   13   2    5    8   14    3
   14   1   10    5
   15   1    7    4
   16   4    7    5   14    4   14    3    9    3
   17   2    8    8    4    4
   18   5    7   11    5    6   12    5    5    4   11    3
   19   4   24    4   14    3    7    2    6    2
   20   2    8    6   19    3
   21   1    9    3
   22   1    6    5
   23   4    6   11    6    9    8    5    8    4
   24   5    5   10    5    6    8    4   16    3   11    3
   25   3    4   10    4    9    6    5
   26   5    8    7    8    7   11    5    6    4    4    2
   27   2    5   10    8    3
   28   1    7    4
   29   5    8   11    6    4   16    3   14    3    7    3
   30   1    6    2
   31   5    8   11    8    4    5    4   23    3    8    3
   32   5    4    7    6    5    6    4    7    3    7    3
   33   5    5    8    7    5    5    5    7    3    4    2
   34   5    5    9   14    4   11    4   17    3    7    2
   35   2    6    8   10    4
   36   3    6   11   22    3   16    2
   37   1    5    9
   38   4    6   10    8    4   15    3    6    3
   39   1    5    9
   40   1   12    3
   41   2    7    6    6    2
   42   4    7   12    4   12    5    5   12    2
   43   3    6   11   21    4   11    3
   44   4    8    4    6    4   14    3    8    3
   45   5   11    6    4    6    8    4    4    4    4    3
   46   3    6    8   14    4    8    2
   47   5    5   11    8    4    6    4   10    3    7    3
   48   4    4   12    6   11    4    6   11    2
   49   1   19    2
   50   5    6   10    8    4   24    3    7    3   24    2
   51   4    5    7    4    5    4    5   23    3
   52   2    7    9    9    5
   53   3    7    6   21    4   16    3
   54   5    7   10    8    7   12    5   10    4    7    2
   55   5    7    6   11    4    8    3   22    2   11    2
   56   1    4    3
   57   5   18    4   12    3    9    3    9    3    6    3
   58   2    7    6    7    5
   59   3    5    6    4    3    4    3
   60   2   18    3    5    3
   61   5   23    4    4    4   17    3   14    3    6    3
   62   5    6   10   10    6   17    3    8    3    6    2
   63   4   10    6    5    4    7    3    7    2
   64   3    4   11   12    3    5    3
   65   2    5    5   13    4
   66   1   24    3
   67   3    5    6    7    3    6    3
   68   3    4   11    5    4   23    2
   69   1    6    3
   70   4    7    5    8    4   11    3    5    2
   71   5    4    9   11    6    8    6   16    2    8    2
   72   3    6    6    5    4    7    3
   73   4    5   12   24    4    7    4   16    2
   74   4    4   11   18    3    9    3    8    3
   75   4    6    5   19    4    7    3    5    3
   76   5   10    4   12    3    9    3    6    2    4    2
   77   4   21    4   11    3    6    3    6    2
   78   5    6    8    8    7    6    6    7    4    7    3
   79   1    6    5
   80   3    7    9   17    4    7    2
   81   5    8    9    6    7    7    4    6    3   10    2
   82   1   11    2
   83   3    7    8   12    3   12    3
   84   3   22    4   23    2   16    2
   85   1    5    3
   86   5   12    5    6    5    7    3    6    2    4    2
   87   2    6   11    6    4
   88   2    5    5   14    3
   89   3    8   10   13    4    6    4
   90   1    9    4
   91   5    5   10    4    5   12    4   11    3   12    2
   92   4    4   12    7    8    9    4    7    2
   93   3    6    6    8    4    5    4
   94   3    5    6   22    4   18    2
   95   1    7    4
   96   4   12    4   24    3    8    3    7    3
   97   5    7    4   20    3   12    3    8    2    5    2
   98   5   10    6   11    4   16    3   10    3   16    2
   99   5    5   11    5    8    6    6    6    5   13    3
  100   1    7    6
  101   5    5    6    6    4   24    3   21    3    5    3
  102   1    8    2
  103   3    5    5   10    3    7    3
  104   3   12    3    6    3    4    3
  105   1   13    3
  106   4    6    5   10    4    4    3    7    2
  107   4    7    9    6    8    6    6    7    4
  108   5    4   11    8    8    9    4   18    3    6    2
  109   5   11    6    6    5    9    4   12    3   11    3
  110   5    4   10   15    4    9    4    5    3    5    2
  111   5    9    4    5    4   15    3   21    2    9    2
  112   4    5    7    9    5   20    4   10    3
  113   4    7    5   18    3   16    3   20    2
  114   3    6    4    4    4   17    2
  115   2    7    2    6    2
  116   2    4    7   12    3
  117   2    5   10   14    3
  118   2   17    3   11    3
  119   2   22    3    7    3
  120   3    8   10    5    4    5    4
